
--- Job ReservoirCode2.gms Start 09/25/20 20:02:32 32.2.0 rc62c018 WEX-WEI x86 64bit/MS Windows
--- Applying:
    C:\GAMS\32\gmsprmNT.txt
--- GAMS Parameters defined
    Input "C:\Users\Sharp Student\Documents\WRSA\GAMS\GitHub\CEE-6410-Campana\ReservoirCode2.gms"
    PageWidth 80
    PageSize 0
    PageContr 3
    Action CE
    ScrDir "C:\Users\Sharp Student\Documents\WRSA\GAMS\GitHub\CEE-6410-Campana\225a\"
    SysDir C:\GAMS\32\
    WorkDir "C:\Users\Sharp Student\Documents\WRSA\GAMS\GitHub\CEE-6410-Campana\"
    LogOption 3
    DFormat 0
    TFormat 0
    ErrorLog 99
    IDE 1
GAMS 32.2.0   Copyright (C) 1987-2020 GAMS Development. All rights reserved
Licensee: Small MUD - 5 User License                     G200622/0001AP-GEN
          Utah State University, Utah Water Research Laboratory      DC7087
          C:\GAMS\32\gamslice.txt
--- Starting compilation
--- ReservoirCode2.gms(182) 3 Mb
--- Starting execution: elapsed 0:00:00.003
--- ReservoirCode2.gms(144) 4 Mb
--- Generating LP model ReservoirOptimization
--- ReservoirCode2.gms(153) 4 Mb
---   56 rows  31 columns  175 non-zeroes
--- Executing CPLEX (Solvelink=2): elapsed 0:00:00.053

IBM ILOG CPLEX   32.2.0 rc62c018 Released Aug 26, 2020 WEI x86 64bit/MS Window
--- GAMS/Cplex Link licensed for continuous and discrete problems.
Cplex 12.10.0.0

Reading parameter(s) from "C:\Users\Sharp Student\Documents\WRSA\GAMS\GitHub\CEE-6410-Campana\cplex.opt"
>> 
>>  rhsrng all
Finished reading from "C:\Users\Sharp Student\Documents\WRSA\GAMS\GitHub\CEE-6410-Campana\cplex.opt"
Reading data...
Starting Cplex...
Space for names approximately 0.00 Mb
Use option 'names no' to turn use of names off
Version identifier: 12.10.0.0 | 2019-11-26 | 843d4de2ae
CPXPARAM_Advance                                 0
CPXPARAM_Threads                                 1
CPXPARAM_Parallel                                1
Tried aggregator 1 time.
LP Presolve eliminated 44 rows and 7 columns.
Reduced LP has 12 rows, 24 columns, and 41 nonzeros.
Presolve time = 0.00 sec. (0.04 ticks)
Initializing dual steep norms . . .

Iteration log . . .
Iteration:     1   Dual infeasibility =             9.500000
Iteration:    11   Dual objective     =            66.200000
LP status(1): optimal
Cplex Time: 0.08sec (det. 0.08 ticks)

Optimal solution found.
Objective :          51.600000

RHS ranging...
--- Reading solution for model ReservoirOptimization
--- Executing after solve: elapsed 0:00:00.178
--- ReservoirCode2.gms(178) 4 Mb
--- GDX File C:\Users\Sharp Student\Documents\WRSA\GAMS\GitHub\CEE-6410-Campana\ReservoirCode2.gdx
--- ReservoirCode2.gms(180) 4 Mb
GDX2XLS          32.2.0 rc62c018 Released Aug 26, 2020 WEI x86 64bit/MS Window
Output file: C:\Users\Sharp Student\Documents\WRSA\GAMS\GitHub\CEE-6410-Campana\ReservoirCode2.xlsx
(Created backup file)
*** Status: Normal completion
--- Job ReservoirCode2.gms Stop 09/25/20 20:02:34 elapsed 0:00:01.698
